CMD:
./solvers/bin/cadical --plain --no-reduce -t 1600 ./data/cnfs//mentorbm1p09/mentorbm1p09.67.cnf

c --- [ banner ] -------------------------------------------------------------
c 
c CaDiCaL SAT Solver
c Copyright (c) 2016-2024
c A. Biere, M. Fleury, N. Froleyks, K. Fazekas, F. Pollitt, T. Faller
c JKU Linz, University of Freiburg, TU Wien
c 
c Version 2.1.3 5296d3d2a9bf48c154ab2acb5e44625776d821bf
c g++ (Gentoo 12.3.1_p20230526 p2) 12.3.1 20230526 -Wall -Wextra -O3 -DNDEBUG
c Sat Aug 9 07:26:21 PDT 2025 Linux cedar2.int.cedar.computecanada.ca 5.14.0-362.24.2.el9_3.x86_64 x86_64
c 
c --- [ limit ] --------------------------------------------------------------
c 
c setting time limit to 1600 seconds real time (due to '-t 1600')
c 
c --- [ parsing input ] ------------------------------------------------------
c 
c reading DIMACS file from './data/cnfs//mentorbm1p09/mentorbm1p09.67.cnf'
c opening file to read './data/cnfs//mentorbm1p09/mentorbm1p09.67.cnf'
c found 'p cnf 2174325 6468321' header
c parsed 6468321 clauses in 1.10 seconds process time
c 
c --- [ options ] ------------------------------------------------------------
c 
c   --compact=false                (different from default 'true')
c   --decompose=false              (different from default 'true')
c   --deduplicate=false            (different from default 'true')
c   --elim=false                   (different from default 'true')
c   --probe=false                  (different from default 'true')
c   --reduce=false                 (different from default 'true')
c   --subsume=false                (different from default 'true')
c   --ternary=false                (different from default 'true')
c   --transred=false               (different from default 'true')
c   --vivify=false                 (different from default 'true')
c 
c --- [ solving ] ------------------------------------------------------------
c 
c time measured in process time since initialization
c 
c  seconds   reductions  redundant   irredundant
c          MB    restarts       trail         variables
c           level   conflicts       glue            remaining
c 
c *  1.10 974  0 0   0    0    0  0% 0 6085842 1942814 89%
c {  1.12 976  0 0   0    0    0  0% 0 6085842 1942814 89%
c i  1.32 982 193 0  11  299  240 14% 1 6085842 1942800 89%
c i  1.50 993 198 0  20  339  272 15% 2 6085842 1934016 89%
c i  1.51 993 194 0  22  346  278 15% 2 6085842 1933962 89%
c i  1.58 993 190 0  24  352  283 15% 2 6085842 1933960 89%
c i  1.58 993 189 0  25  354  284 15% 2 6085842 1933958 89%
c }  1.58 993 188 0  25  357  285 15% 2 6085842 1933060 89%
c 0  1.58 993 188 0  25  357  285 15% 2 6085842 1933060 89%
c 
c --- [ result ] -------------------------------------------------------------
c 
s UNSATISFIABLE
c 
c --- [ run-time profiling ] -------------------------------------------------
c 
c process time taken by individual solving procedures
c (percentage relative to process time for solving)
c 
c         1.10  226.39% parse
c         0.48   99.97% search
c         0.46   95.19% unstable
c         0.02    4.79% lucky
c         0.00    0.00% simplify
c   =================================
c         0.48   30.63% solve
c 
c last line shows process time for solving
c (percentage relative to total process time)
c 
c --- [ statistics ] ---------------------------------------------------------
c 
c chronological:               141        39.50 %  of conflicts
c conflicts:                   357       736.34    per second
c decisions:                  7570     15613.62    per second
c fixed:                    241265        11.10 %  of all variables
c learned:                     292        81.79 %  per conflict
c learned_lits:               1424       100.00 %  learned literals
c minimized:                     0         0.00 %  learned literals
c shrunken:                    183        12.85 %  learned literals
c minishrunken:                130         9.13 %  learned literals
c otfs:                          1         0.28 %  of conflict
c propagations:            4364263         9.00 M  per second
c restarts:                     25        14.28    interval
c subsumed:                      1         0.00 %  of all clauses
c strengthened:                  1         0.00 %  of all clauses
c 
c seconds are measured in process time for solving
c 
c --- [ resources ] ----------------------------------------------------------
c 
c total process time since initialization:         1.58    seconds
c total real time since initialization:            1.59    seconds
c maximum resident set size of process:          992.24    MB
c 
c --- [ shutting down ] ------------------------------------------------------
c 
c exit 20
